Output/Sols/instance_0.sol
# Solution for instance_0
# Number of deliveries: 5
# Number of feasible trips generated: 15
# Number of trips selected: 2

Source: D2, total_km: 79.00, weight: 773.00, volume: 5.02
Deliveries: D2, D4

Source: D0, total_km: 96.00, weight: 1218.00, volume: 3.52
Deliveries: D0, D1, D3

