Output/Logs/instance_0.log

Gurobi 12.0.3 (win64) logging started Mon Jul 28 14:58:37 2025

Set parameter LogFile to value "Output/Logs\instance_0.log"
Set parameter TimeLimit to value 3600
Set parameter Seed to value 12345
Gurobi Optimizer version 12.0.3 build v12.0.3rc0 (win64 - Windows 11.0 (26100.2))

CPU model: Intel(R) Core(TM) i5-10310U CPU @ 1.70GHz, instruction set [SSE2|AVX|AVX2]
Thread count: 4 physical cores, 8 logical processors, using up to 8 threads

Non-default parameters:
TimeLimit  3600
Seed  12345

Optimize a model with 5 rows, 14 columns and 26 nonzeros
Model fingerprint: 0x5140c80c
Variable types: 0 continuous, 14 integer (14 binary)
Coefficient statistics:
  Matrix range     [1e+00, 1e+00]
  Objective range  [2e+01, 7e+01]
  Bounds range     [1e+00, 1e+00]
  RHS range        [1e+00, 1e+00]
Found heuristic solution: objective 145.0000000
Presolve time: 0.00s
Presolved: 5 rows, 14 columns, 26 nonzeros
Variable types: 0 continuous, 14 integer (14 binary)

Root relaxation: objective 8.700000e+01, 4 iterations, 0.00 seconds (0.00 work units)

    Nodes    |    Current Node    |     Objective Bounds      |     Work
 Expl Unexpl |  Obj  Depth IntInf | Incumbent    BestBd   Gap | It/Node Time

*    0     0               0      87.0000000   87.00000  0.00%     -    0s

Explored 1 nodes (4 simplex iterations) in 0.01 seconds (0.00 work units)
Thread count was 8 (of 8 available processors)

Solution count 2: 87 145 

Optimal solution found (tolerance 1.00e-04)
Best objective 8.700000000000e+01, best bound 8.700000000000e+01, gap 0.0000%
Deliveries count: 5
Feasible trips generated: 14
Trips selected: 2
Elapsed time (seconds): 0.01

Gurobi 12.0.3 (win64) logging started Mon Jul 28 14:59:01 2025

Set parameter LogFile to value "Output/Logs\instance_0.log"
Set parameter TimeLimit to value 3600
Set parameter Seed to value 12345
Gurobi Optimizer version 12.0.3 build v12.0.3rc0 (win64 - Windows 11.0 (26100.2))

CPU model: Intel(R) Core(TM) i5-10310U CPU @ 1.70GHz, instruction set [SSE2|AVX|AVX2]
Thread count: 4 physical cores, 8 logical processors, using up to 8 threads

Non-default parameters:
TimeLimit  3600
Seed  12345

Optimize a model with 5 rows, 14 columns and 26 nonzeros
Model fingerprint: 0x5140c80c
Variable types: 0 continuous, 14 integer (14 binary)
Coefficient statistics:
  Matrix range     [1e+00, 1e+00]
  Objective range  [2e+01, 7e+01]
  Bounds range     [1e+00, 1e+00]
  RHS range        [1e+00, 1e+00]
Found heuristic solution: objective 145.0000000
Presolve time: 0.00s
Presolved: 5 rows, 14 columns, 26 nonzeros
Variable types: 0 continuous, 14 integer (14 binary)

Root relaxation: objective 8.700000e+01, 4 iterations, 0.00 seconds (0.00 work units)

    Nodes    |    Current Node    |     Objective Bounds      |     Work
 Expl Unexpl |  Obj  Depth IntInf | Incumbent    BestBd   Gap | It/Node Time

*    0     0               0      87.0000000   87.00000  0.00%     -    0s

Explored 1 nodes (4 simplex iterations) in 0.01 seconds (0.00 work units)
Thread count was 8 (of 8 available processors)

Solution count 2: 87 145 

Optimal solution found (tolerance 1.00e-04)
Best objective 8.700000000000e+01, best bound 8.700000000000e+01, gap 0.0000%
Deliveries count: 5
Feasible trips generated: 14
Trips selected: 2
Elapsed time (seconds): 0.01

Gurobi 12.0.3 (win64) logging started Mon Jul 28 14:59:28 2025

Set parameter LogFile to value "Output/Logs\instance_0.log"
Set parameter TimeLimit to value 3600
Set parameter Seed to value 12345
Gurobi Optimizer version 12.0.3 build v12.0.3rc0 (win64 - Windows 11.0 (26100.2))

CPU model: Intel(R) Core(TM) i5-10310U CPU @ 1.70GHz, instruction set [SSE2|AVX|AVX2]
Thread count: 4 physical cores, 8 logical processors, using up to 8 threads

Non-default parameters:
TimeLimit  3600
Seed  12345

Optimize a model with 5 rows, 22 columns and 54 nonzeros
Model fingerprint: 0x2ffe5bb2
Variable types: 0 continuous, 22 integer (22 binary)
Coefficient statistics:
  Matrix range     [1e+00, 1e+00]
  Objective range  [2e+01, 2e+02]
  Bounds range     [1e+00, 1e+00]
  RHS range        [1e+00, 1e+00]
Found heuristic solution: objective 145.0000000
Presolve removed 0 rows and 3 columns
Presolve time: 0.00s
Presolved: 5 rows, 19 columns, 41 nonzeros
Variable types: 0 continuous, 19 integer (19 binary)

Root relaxation: objective 8.700000e+01, 4 iterations, 0.00 seconds (0.00 work units)

    Nodes    |    Current Node    |     Objective Bounds      |     Work
 Expl Unexpl |  Obj  Depth IntInf | Incumbent    BestBd   Gap | It/Node Time

*    0     0               0      87.0000000   87.00000  0.00%     -    0s

Explored 1 nodes (4 simplex iterations) in 0.01 seconds (0.00 work units)
Thread count was 8 (of 8 available processors)

Solution count 2: 87 145 

Optimal solution found (tolerance 1.00e-04)
Best objective 8.700000000000e+01, best bound 8.700000000000e+01, gap 0.0000%
Deliveries count: 5
Feasible trips generated: 22
Trips selected: 2
Elapsed time (seconds): 0.01

Gurobi 12.0.3 (win64) logging started Mon Jul 28 14:59:57 2025

Set parameter LogFile to value "Output/Logs\instance_0.log"
Set parameter TimeLimit to value 3600
Set parameter Seed to value 12345
Gurobi Optimizer version 12.0.3 build v12.0.3rc0 (win64 - Windows 11.0 (26100.2))

CPU model: Intel(R) Core(TM) i5-10310U CPU @ 1.70GHz, instruction set [SSE2|AVX|AVX2]
Thread count: 4 physical cores, 8 logical processors, using up to 8 threads

Non-default parameters:
TimeLimit  3600
Seed  12345

Optimize a model with 5 rows, 28 columns and 73 nonzeros
Model fingerprint: 0x23d2e6e3
Variable types: 0 continuous, 28 integer (28 binary)
Coefficient statistics:
  Matrix range     [1e+00, 1e+00]
  Objective range  [2e+01, 2e+02]
  Bounds range     [1e+00, 1e+00]
  RHS range        [1e+00, 1e+00]
Found heuristic solution: objective 145.0000000
Presolve removed 0 rows and 5 columns
Presolve time: 0.00s
Presolved: 5 rows, 23 columns, 52 nonzeros
Variable types: 0 continuous, 23 integer (23 binary)

Root relaxation: objective 8.700000e+01, 4 iterations, 0.01 seconds (0.00 work units)

    Nodes    |    Current Node    |     Objective Bounds      |     Work
 Expl Unexpl |  Obj  Depth IntInf | Incumbent    BestBd   Gap | It/Node Time

*    0     0               0      87.0000000   87.00000  0.00%     -    0s

Explored 1 nodes (4 simplex iterations) in 0.02 seconds (0.00 work units)
Thread count was 8 (of 8 available processors)

Solution count 2: 87 145 

Optimal solution found (tolerance 1.00e-04)
Best objective 8.700000000000e+01, best bound 8.700000000000e+01, gap 0.0000%
Deliveries count: 5
Feasible trips generated: 28
Trips selected: 2
Elapsed time (seconds): 0.02

Gurobi 12.0.3 (win64) logging started Mon Jul 28 15:03:57 2025

Set parameter LogFile to value "Output/Logs\instance_0.log"
Set parameter TimeLimit to value 3600
Set parameter Seed to value 12345
Gurobi Optimizer version 12.0.3 build v12.0.3rc0 (win64 - Windows 11.0 (26100.2))

CPU model: Intel(R) Core(TM) i5-10310U CPU @ 1.70GHz, instruction set [SSE2|AVX|AVX2]
Thread count: 4 physical cores, 8 logical processors, using up to 8 threads

Non-default parameters:
TimeLimit  3600
Seed  12345

Optimize a model with 5 rows, 22 columns and 54 nonzeros
Model fingerprint: 0x2ee48f3b
Variable types: 0 continuous, 22 integer (22 binary)
Coefficient statistics:
  Matrix range     [1e+00, 1e+00]
  Objective range  [7e+00, 4e+01]
  Bounds range     [1e+00, 1e+00]
  RHS range        [1e+00, 1e+00]
Found heuristic solution: objective 145.0000000
Presolve time: 0.00s
Presolved: 5 rows, 22 columns, 54 nonzeros
Variable types: 0 continuous, 22 integer (22 binary)

Root relaxation: objective 3.087500e+01, 4 iterations, 0.00 seconds (0.00 work units)

    Nodes    |    Current Node    |     Objective Bounds      |     Work
 Expl Unexpl |  Obj  Depth IntInf | Incumbent    BestBd   Gap | It/Node Time

     0     0   30.87500    0    3  145.00000   30.87500  78.7%     -    0s
H    0     0                      53.7500000   30.87500  42.6%     -    0s
H    0     0                      32.5000000   30.87500  5.00%     -    0s
H    0     0                      31.2000000   30.87500  1.04%     -    0s
     0     0   30.87500    0    3   31.20000   30.87500  1.04%     -    0s

Explored 1 nodes (4 simplex iterations) in 0.01 seconds (0.00 work units)
Thread count was 8 (of 8 available processors)

Solution count 4: 31.2 32.5 53.75 145 

Optimal solution found (tolerance 1.00e-04)
Best objective 3.120000000000e+01, best bound 3.120000000000e+01, gap 0.0000%
Deliveries count: 5
Feasible trips generated: 22
Trips selected: 1
Elapsed time (seconds): 0.02
